Academic license - for non-commercial use only - expires 2022-11-10
Using license file /home/benedond/Apps/gurobi/gurobi950/gurobi.lic
Using gurobi.env file
Set parameter Threads to value 1
Changed value of parameter TimeLimit to 300.0
   Prev: inf  Min: 0.0  Max: inf  Default: inf
Gurobi Optimizer version 9.1.2 build v9.1.2rc0 (linux64)
Thread count: 2 physical cores, 4 logical processors, using up to 1 threads
Optimize a model with 1009 rows, 908 columns and 4316 nonzeros
Model fingerprint: 0xf773453c
Variable types: 40 continuous, 868 integer (868 binary)
Coefficient statistics:
  Matrix range     [1e-01, 2e+02]
  Objective range  [5e-02, 4e-01]
  Bounds range     [1e+00, 1e+00]
  RHS range        [1e+00, 6e+02]
Presolve removed 129 rows and 53 columns
Presolve time: 0.02s
Presolved: 880 rows, 855 columns, 4007 nonzeros
Variable types: 39 continuous, 816 integer (816 binary)
Found heuristic solution: objective 4.5376863

Root relaxation: objective 3.446616e+00, 617 iterations, 0.01 seconds

    Nodes    |    Current Node    |     Objective Bounds      |     Work
 Expl Unexpl |  Obj  Depth IntInf | Incumbent    BestBd   Gap | It/Node Time

     0     0    3.44662    0   56    4.53769    3.44662  24.0%     -    0s
H    0     0                       4.2611104    3.44662  19.1%     -    0s
H    0     0                       4.2563052    3.44662  19.0%     -    0s
     0     0    3.52178    0   63    4.25631    3.52178  17.3%     -    0s
H    0     0                       4.1394494    3.52178  14.9%     -    0s
     0     0    3.52279    0   61    4.13945    3.52279  14.9%     -    0s
     0     0    3.61275    0   55    4.13945    3.61275  12.7%     -    0s
H    0     0                       4.0696460    3.61275  11.2%     -    0s
H    0     0                       4.0136429    3.61275  10.0%     -    0s
     0     0    3.63396    0   54    4.01364    3.63396  9.46%     -    0s
     0     0    3.69638    0   44    4.01364    3.69638  7.90%     -    0s
     0     0    3.69843    0   47    4.01364    3.69843  7.85%     -    0s
     0     0    3.72161    0   60    4.01364    3.72161  7.28%     -    0s
     0     0    3.74396    0   50    4.01364    3.74396  6.72%     -    0s
     0     0    3.74423    0   37    4.01364    3.74423  6.71%     -    0s
     0     0    3.74630    0   36    4.01364    3.74630  6.66%     -    0s
H    0     0                       4.0063126    3.74630  6.49%     -    0s
H    0     0                       3.9262271    3.74630  4.58%     -    0s
     0     0    3.74722    0   48    3.92623    3.74722  4.56%     -    0s
     0     0    3.74809    0   42    3.92623    3.74809  4.54%     -    0s
     0     0    3.75148    0   44    3.92623    3.75148  4.45%     -    0s
     0     0    3.75221    0   65    3.92623    3.75221  4.43%     -    0s
     0     0    3.75281    0   60    3.92623    3.75281  4.42%     -    0s
     0     0    3.75287    0   58    3.92623    3.75287  4.42%     -    0s
     0     0    3.75945    0   47    3.92623    3.75945  4.25%     -    0s
     0     0    3.75947    0   48    3.92623    3.75947  4.25%     -    0s
     0     0    3.76185    0   24    3.92623    3.76185  4.19%     -    0s
     0     0    3.76185    0   34    3.92623    3.76185  4.19%     -    0s
     0     0    3.76218    0   24    3.92623    3.76218  4.18%     -    0s
     0     0    3.76218    0   24    3.92623    3.76218  4.18%     -    0s
     0     2    3.76638    0   24    3.92623    3.76638  4.07%     -    0s
H   43    33                       3.9149604    3.77477  3.58%  33.1    0s
*  637   268              31       3.9077256    3.84267  1.66%  28.5    1s
*  743   282              21       3.9039993    3.84441  1.53%  27.8    1s
*  744   265              20       3.8993513    3.84441  1.41%  27.7    1s
*  827   266              18       3.8989005    3.84817  1.30%  27.3    1s
H 2004     9                       3.8955863    3.89423  0.03%  24.3    3s

Cutting planes:
  Gomory: 10
  Cover: 103
  Implied bound: 28
  Clique: 21
  MIR: 97
  StrongCG: 5
  GUB cover: 1
  Inf proof: 1
  RLT: 16
  Relax-and-lift: 59

Explored 2014 nodes (50834 simplex iterations) in 3.22 seconds
Thread count was 1 (of 4 available processors)

Solution count 10: 3.89559 3.8989 3.89935 ... 4.06965

Optimal solution found (tolerance 1.00e-04)
Best objective 3.895586301461e+00, best bound 3.895302787675e+00, gap 0.0073%
